n = 16;
lu = [|96, 208
      |137, 208
      |-123, 70
      |191, 208
      |-170, 37
      |-45, 253
      |-204, -93
      |-26, 231
      |-149, -94
      |-84, 210
      |-37, 66
      |-4, 157
      |-215, 38
      |-238, -208
      |-159, 99
      |-111, 98|];
